Reading model...
...model read.
creating competitive generators file...
...competitive generators recorded.
Loading data...
.. real-time data read.
Compiling instance...
...instance created.
Creating Offer Mitigation (model will solve as dispatch if TRUE)...
NOTE: storage offers will not be mitigated
...storage offer mitigation file created
Converting model to MPEC...
...converted
NOTE: initial MIP solve with only storage competitive to get feasible solution
Solving...

Welcome to IBM(R) ILOG(R) CPLEX(R) Interactive Optimizer 12.9.0.0
  with Simplex, Mixed Integer & Barrier Optimizers
5725-A06 5725-A29 5724-Y48 5724-Y49 5724-Y54 5724-Y55 5655-Y21
Copyright IBM Corp. 1988, 2019.  All Rights Reserved.

Type 'help' for a list of available commands.
Type 'help' followed by a command name for more
information on commands.

CPLEX> Logfile 'cplex.log' closed.
Logfile 'C:\Users\llavin\Desktop\test85\logs\tmpo5nexocz.cplex.log' open.
CPLEX> New value for parallel optimization mode: -1
CPLEX> New value for mixed integer optimality gap tolerance: 0.05
CPLEX> New value for deterministic time limit in ticks: 100000
CPLEX> Problem 'C:\Users\llavin\Desktop\test85\logs\tmpgr4fmpgj.pyomo.lp' read.
Read time = 0.52 sec. (27.84 ticks)
CPLEX> Problem name         : C:\Users\llavin\Desktop\test85\logs\tmpgr4fmpgj.pyomo.lp
Objective sense      : Maximize
Variables            :  107779  [Nneg: 1,  Box: 44054,  Free: 8928,
                                 Binary: 54796]
Objective nonzeros   :   17522
Linear constraints   :  246995  [Less: 82866,  Greater: 118424,  Equal: 45705]
  Nonzeros           :  580829
  RHS nonzeros       :  134592

Variables            : Min LB: -5000.000        Max UB: 1000000.       
Objective nonzeros   : Min   : 0.1944444        Max   : 2500.000       
Linear constraints   :
  Nonzeros           : Min   : 0.1944444        Max   : 1000000.       
  RHS nonzeros       : Min   : 0.1944444        Max   : 1000000.       
CPLEX> CPXPARAM_Parallel                                -1
CPXPARAM_DetTimeLimit                            100000
CPXPARAM_MIP_Tolerances_MIPGap                   0.050000000000000003
Tried aggregator 3 times.
MIP Presolve eliminated 181815 rows and 41535 columns.
MIP Presolve added 6048 rows and 0 columns.
MIP Presolve modified 48900 coefficients.
Aggregator did 25860 substitutions.
Reduced MIP has 45368 rows, 38752 columns, and 125738 nonzeros.
Reduced MIP has 15252 binaries, 0 generals, 0 SOSs, and 0 indicators.
Presolve time = 0.59 sec. (333.54 ticks)
Probing fixed 766 vars, tightened 6846 bounds.
Probing time = 0.36 sec. (13.09 ticks)
Tried aggregator 2 times.
MIP Presolve eliminated 1724 rows and 1532 columns.
MIP Presolve modified 5520 coefficients.
Aggregator did 49 substitutions.
Reduced MIP has 43595 rows, 37171 columns, and 120612 nonzeros.
Reduced MIP has 14486 binaries, 0 generals, 0 SOSs, and 0 indicators.
Presolve time = 0.23 sec. (207.16 ticks)
Probing fixed 0 vars, tightened 199 bounds.
Probing time = 0.50 sec. (13.86 ticks)
Clique table members: 79302.
MIP emphasis: balance optimality and feasibility.
MIP search method: dynamic search.
Parallel mode: opportunistic, using up to 32 threads.
Root relaxation solution time = 0.81 sec. (1625.53 ticks)

        Nodes                                         Cuts/
   Node  Left     Objective  IInf  Best Integer    Best Bound    ItCnt     Gap

      0     0        0.0000     4                      0.0000     7804         
*     0+    0                            0.0000        0.0000             0.00%
      0     0        cutoff              0.0000        0.0000     7804    0.00%
Elapsed time = 3.14 sec. (2570.38 ticks, tree = 0.01 MB, solutions = 1)

Root node processing (before b&c):
  Real time             =    3.17 sec. (2574.17 ticks)
Parallel b&c, 32 threads:
  Real time             =    0.00 sec. (0.00 ticks)
  Sync time (average)   =    0.00 sec.
  Wait time (average)   =    0.00 sec.
                          ------------
Total (root+branch&cut) =    3.17 sec. (2574.17 ticks)

Solution pool: 1 solution saved.

MIP - Integer optimal solution:  Objective =  0.0000000000e+00
Solution time =    3.19 sec.  Iterations = 7804  Nodes = 0
Deterministic time = 2574.48 ticks  (807.81 ticks/sec)

CPLEX> Incumbent solution written to file 'C:\Users\llavin\Desktop\test85\logs\tmpipvewyg9.cplex.sol'.
CPLEX> NOTE: no warmstart specified for MIP iteration, default behavior is true
NOTE: resolving with all competitive generators using storage-only solution to warmstart
Solving...

Welcome to IBM(R) ILOG(R) CPLEX(R) Interactive Optimizer 12.9.0.0
  with Simplex, Mixed Integer & Barrier Optimizers
5725-A06 5725-A29 5724-Y48 5724-Y49 5724-Y54 5724-Y55 5655-Y21
Copyright IBM Corp. 1988, 2019.  All Rights Reserved.

Type 'help' for a list of available commands.
Type 'help' followed by a command name for more
information on commands.

CPLEX> Logfile 'cplex.log' closed.
Logfile 'C:\Users\llavin\Desktop\test85\logs\tmp50k2ogpn.cplex.log' open.
CPLEX> New value for parallel optimization mode: -1
CPLEX> New value for mixed integer optimality gap tolerance: 0.05
CPLEX> New value for deterministic time limit in ticks: 100000
CPLEX> Problem 'C:\Users\llavin\Desktop\test85\logs\tmp4b3s9axu.pyomo.lp' read.
Read time = 0.53 sec. (27.89 ticks)
CPLEX> MIP start file 'C:\Users\llavin\Desktop\test85\logs\tmpciq901_8.cplex.mst' read.
CPLEX> Problem name         : C:\Users\llavin\Desktop\test85\logs\tmp4b3s9axu.pyomo.lp
Objective sense      : Maximize
Variables            :  109219  [Nneg: 1,  Box: 45494,  Free: 8928,
                                 Binary: 54796]
Objective nonzeros   :   18914
Linear constraints   :  246995  [Less: 82866,  Greater: 118424,  Equal: 45705]
  Nonzeros           :  580829
  RHS nonzeros       :  134592

Variables            : Min LB: -5000.000        Max UB: 1000000.       
Objective nonzeros   : Min   : 0.1944444        Max   : 2500.000       
Linear constraints   :
  Nonzeros           : Min   : 0.1944444        Max   : 1000000.       
  RHS nonzeros       : Min   : 0.1944444        Max   : 1000000.       
CPLEX> CPXPARAM_Parallel                                -1
CPXPARAM_DetTimeLimit                            100000
CPXPARAM_MIP_Tolerances_MIPGap                   0.050000000000000003
1 of 1 MIP starts provided solutions.
MIP start 'm1' defined initial solution with objective 0.0000.
Tried aggregator 3 times.
MIP Presolve eliminated 181815 rows and 42975 columns.
MIP Presolve added 6048 rows and 0 columns.
MIP Presolve modified 48900 coefficients.
Aggregator did 25860 substitutions.
Reduced MIP has 45368 rows, 38752 columns, and 125738 nonzeros.
Reduced MIP has 15252 binaries, 0 generals, 0 SOSs, and 0 indicators.
Presolve time = 0.61 sec. (334.26 ticks)
Probing fixed 766 vars, tightened 6846 bounds.
Probing time = 0.36 sec. (13.09 ticks)
Tried aggregator 2 times.
MIP Presolve eliminated 1724 rows and 1532 columns.
MIP Presolve modified 5520 coefficients.
Aggregator did 49 substitutions.
Reduced MIP has 43595 rows, 37171 columns, and 120612 nonzeros.
Reduced MIP has 14486 binaries, 0 generals, 0 SOSs, and 0 indicators.
Presolve time = 0.23 sec. (207.17 ticks)
Probing fixed 0 vars, tightened 205 bounds.
Probing time = 0.50 sec. (14.11 ticks)
Clique table members: 78946.
MIP emphasis: balance optimality and feasibility.
MIP search method: dynamic search.
Parallel mode: opportunistic, using up to 32 threads.
Root relaxation solution time = 0.84 sec. (1565.40 ticks)

        Nodes                                         Cuts/
   Node  Left     Objective  IInf  Best Integer    Best Bound    ItCnt     Gap

*     0+    0                            0.0000   1.10813e+07              --- 
      0     0    15182.0649   382        0.0000    15182.0649     8250     --- 
*     0+    0                            0.0001    15182.0649              --- 
      0     0    14217.1398   360        0.0001    Cuts: 1018     8886     --- 
      0     0    14196.1728   356        0.0001     Cuts: 128     9027     --- 
      0     0    14196.1724   373        0.0001      Cuts: 62     9094     --- 
      0     0    14196.1724   369        0.0001      Cuts: 29     9131     --- 
      0     0    14196.1724   362        0.0001      Cuts: 14     9161     --- 
      0     0    14196.1724   359        0.0001      Cuts: 14     9192     --- 
      0    13    infeasible              0.0001  Impl Bds: 36    10423     --- 
Elapsed time = 10.22 sec. (6278.08 ticks, tree = 0.02 MB, solutions = 2)
    185   107    10181.6231   262        0.0001    11760.6131    12005     --- 
    609   113    10050.0506   251        0.0001    11760.6131    12125     --- 
    939   729     9818.8096   218        0.0001    11760.6131    15987     --- 
   1209   697     9130.1241   199        0.0001    11760.6131    15752     --- 
   1527   682     8883.5287   203        0.0001    11760.6131    15592     --- 
   1870   801     9209.0787   200        0.0001    11760.6131    16324     --- 
   2189  1048     7141.7732   165        0.0001    11760.6131    17564     --- 
   2431  1394     4699.4521   118        0.0001    11760.6131    20174     --- 
   2656  1388        cutoff              0.0001    11760.6131    20004     --- 
   3997  2053     3957.3720    71        0.0001    11760.6131    25858     --- 
Elapsed time = 32.36 sec. (9381.51 ticks, tree = 20.58 MB, solutions = 2)
   5253  3518     1863.9459    32        0.0001    11760.6131    36534     --- 
   6186  3901     8000.0298   195        0.0001    11635.3609    40718     --- 
*  6346  3138      integral     0        0.0001        0.0001    62227    0.00%

Cover cuts applied:  2
Implied bound cuts applied:  38
Flow cuts applied:  377
Mixed integer rounding cuts applied:  191
Gomory fractional cuts applied:  60

Root node processing (before b&c):
  Real time             =    8.25 sec. (6258.48 ticks)
Parallel b&c, 32 threads:
  Real time             =   43.11 sec. (12837.88 ticks)
  Sync time (average)   =    1.21 sec.
  Wait time (average)   =    0.00 sec.
                          ------------
Total (root+branch&cut) =   51.36 sec. (19096.36 ticks)

Solution pool: 2 solutions saved.

MIP - Integer optimal solution:  Objective =  1.0568327606e-04
Solution time =   51.39 sec.  Iterations = 62227  Nodes = 6346
Deterministic time = 19096.67 ticks  (371.60 ticks/sec)

CPLEX> Incumbent solution written to file 'C:\Users\llavin\Desktop\test85\logs\tmpadfw1lkq.cplex.sol'.
CPLEX> Exporting results... 
